
Gurobi 9.0.2 (win64) logging started Sat Oct 10 12:42:36 2020

Changed value of parameter logfile to result\v6.2-20201010T1221\scenario_2030_eff070_cab3800.log
   Prev:   Default: 
Gurobi Optimizer version 9.0.2 build v9.0.2rc0 (win64)
Optimize a model with 1384150 rows, 884815 columns and 3912197 nonzeros
Model fingerprint: 0xba722923
Coefficient statistics:
  Matrix range     [1e-07, 4e+05]
  Objective range  [1e+00, 1e+00]
  Bounds range     [0e+00, 0e+00]
  RHS range        [2e-05, 3e+08]
Warning: Model contains large matrix coefficient range
         Consider reformulating model or setting NumericFocus parameter
         to avoid numerical issues.

Concurrent LP optimizer: primal simplex, dual simplex, and barrier
Showing barrier log only...

Presolve removed 1129315 rows and 656241 columns
Presolve time: 3.58s
Presolved: 254835 rows, 342440 columns, 891938 nonzeros

Ordering time: 0.13s

Barrier statistics:
 Dense cols : 9
 AA' NZ     : 8.194e+05
 Factor NZ  : 4.461e+06 (roughly 300 MBytes of memory)
 Factor Ops : 1.125e+08 (less than 1 second per iteration)
 Threads    : 30

                  Objective                Residual
Iter       Primal          Dual         Primal    Dual     Compl     Time
   0  -2.03878511e+16 -1.58515987e+15  6.11e+06 1.56e+04  2.45e+12     4s
   1  -3.12764603e+15 -1.58938235e+15  9.30e+05 4.73e+06  8.03e+11     5s
   2  -1.27383749e+15 -1.31159213e+15  3.76e+05 7.68e+05  2.15e+11     5s
   3  -4.89660895e+14 -1.06103780e+15  1.40e+05 2.07e+05  7.08e+10     5s
   4  -1.11221534e+14 -6.51894382e+14  2.92e+04 5.05e+04  1.63e+10     6s
   5  -3.52907041e+13 -4.30309041e+14  9.31e+03 2.46e+04  6.57e+09     6s
   6  -1.64442527e+13 -2.41550233e+14  4.60e+03 7.09e+03  2.54e+09     6s
   7  -6.04273369e+12 -1.36641844e+14  1.85e+03 1.31e+03  7.86e+08     6s
   8  -5.81044740e+11 -6.13667786e+13  3.59e+02 1.74e+02  1.66e+08     6s
   9   5.87094521e+11 -5.87460520e+12  1.14e+00 1.11e+00  9.57e+06     7s
  10   1.41057804e+11 -9.87601972e+11  1.13e-01 7.45e-09  1.64e+06     7s
  11   6.26436324e+10 -4.31410115e+11  4.21e-02 7.45e-09  7.16e+05     7s
  12   2.94510290e+10 -2.26007802e+11  1.59e-02 1.12e-08  3.70e+05     8s
  13   2.00910274e+10 -9.03549985e+10  9.47e-03 1.12e-08  1.60e+05     8s
  14   2.03573174e+10 -8.61694644e+10  9.39e-03 1.12e-08  1.54e+05     8s
  15   1.59750855e+10 -3.31926574e+10  6.03e-03 1.12e-08  7.12e+04     8s
  16   9.96223009e+09 -5.83882987e+09  1.56e-03 1.12e-08  2.29e+04     9s
  17   8.66630561e+09  2.34419005e+09  7.40e-04 7.45e-09  9.14e+03     9s
  18   8.37400216e+09  4.63936793e+09  5.95e-04 5.59e-09  5.40e+03     9s
  19   8.20748444e+09  5.47512288e+09  5.06e-04 3.73e-09  3.95e+03    10s
  20   7.96389903e+09  5.82002526e+09  3.77e-04 3.73e-09  3.10e+03    10s
  21   7.72706737e+09  5.93737296e+09  2.51e-04 3.73e-09  2.59e+03    10s
  22   7.56503552e+09  6.36077421e+09  1.68e-04 2.79e-09  1.74e+03    10s
  23   7.39878008e+09  6.75275580e+09  8.32e-05 2.79e-09  9.33e+02    11s
  24   7.31249613e+09  6.86910734e+09  4.27e-05 1.86e-09  6.40e+02    11s
  25   7.27683128e+09  6.94689952e+09  2.66e-05 1.86e-09  4.77e+02    11s
  26   7.25076693e+09  6.98979910e+09  1.59e-05 1.86e-09  3.77e+02    12s
  27   7.23844364e+09  7.03515298e+09  1.10e-05 1.86e-09  2.94e+02    12s
  28   7.22567589e+09  7.12791431e+09  5.92e-06 2.79e-09  1.41e+02    12s
  29   7.21683850e+09  7.15610749e+09  2.80e-06 1.86e-09  8.77e+01    13s
  30   7.21494219e+09  7.15990552e+09  2.15e-06 1.86e-09  7.95e+01    13s
  31   7.21270827e+09  7.17984285e+09  1.45e-06 1.86e-09  4.75e+01    13s
  32   7.21108916e+09  7.18876769e+09  9.80e-07 1.86e-09  3.22e+01    13s
  33   7.20953655e+09  7.19598687e+09  5.33e-07 1.86e-09  1.96e+01    14s
  34   7.20852525e+09  7.20155615e+09  2.80e-07 1.86e-09  1.01e+01    14s
  35   7.20835305e+09  7.20195209e+09  2.39e-07 2.79e-09  9.24e+00    14s
  36   7.20782312e+09  7.20354251e+09  1.23e-07 1.86e-09  6.18e+00    14s
  37   7.20760546e+09  7.20623956e+09  6.15e-08 2.79e-09  1.97e+00    15s
  38   7.20741757e+09  7.20695833e+09  1.72e-06 2.79e-09  6.63e-01    15s
  39   7.20738435e+09  7.20724061e+09  8.06e-07 1.86e-09  2.08e-01    15s
  40   7.20735019e+09  7.20734712e+09  1.24e-07 4.33e-09  4.43e-03    15s
  41   7.20734971e+09  7.20734971e+09  3.80e-09 2.79e-09  4.43e-06    16s
  42   7.20734971e+09  7.20734971e+09  2.39e-04 3.32e-09  1.40e-07    16s
  43   7.20734971e+09  7.20734971e+09  2.28e-04 2.50e-08  1.21e-07    16s

Barrier solved model in 43 iterations and 16.35 seconds
Optimal objective 7.20734971e+09

Crossover log...

   75723 DPushes remaining with DInf 0.0000000e+00                17s
       0 DPushes remaining with DInf 0.0000000e+00                19s
Warning: Markowitz tolerance tightened to 0.5

   62091 PPushes remaining with PInf 7.0110134e-04                19s
   36274 PPushes remaining with PInf 0.0000000e+00                24s
   21865 PPushes remaining with PInf 0.0000000e+00                27s
    2018 PPushes remaining with PInf 0.0000000e+00                30s
       0 PPushes remaining with PInf 0.0000000e+00                31s

  Push phase complete: Pinf 0.0000000e+00, Dinf 3.4746498e-08     31s

Extra one simplex iteration after uncrush
Iteration    Objective       Primal Inf.    Dual Inf.      Time
   91491    7.2073497e+09   0.000000e+00   0.000000e+00     34s

Solved with barrier
Solved in 91491 iterations and 33.99 seconds
Optimal objective  7.207349711e+09
Warning: unscaled primal violation = 0.000874656 and residual = 0.000874656
